Name: SQDG 54:0
Synon: SQDG 27:0-27:0
Synon: $:00in-source
DB#: LipidBlast485796
InChIKey: MDMXEJDVBDLKND-UHFFFAOYSA-N
Precursor_type: [M-H]-
Spectrum_type: MS2
PrecursorMZ: 1101.85788
Instrument_type: in-silico QTOF
Instrument: SCIEX 5600
Ion_mode: N
Collision_energy: 45 V
Formula: C63H122O12S
MW: 1103
ExactMass: 1102.8657003439998
Comments: "SMILES=CCCCCCCCCCCCCCCCCCCCCCCCCCC(=O)OCC(COC1OC(CS(O)(=O)=O)C(O)C(O)C1O)OC(=O)CCCCCCCCCCCCCCCCCCCCCCCCCC" "compound class=SQDG" "computed SMILES=O=C(OCC(OC(=O)CCCCCCCCCCCCCCCCCCCCCCCCCC)COC1OC(CS(=O)(=O)O)C(O)C(O)C1O)CCCCCCCCCCCCCCCCCCCCCCCCCC" "computed InChI=InChI=1S/C63H122O12S/c1-3-5-7-9-11-13-15-17-19-21-23-25-27-29-31-33-35-37-39-41-43-45-47-49-51-58(64)72-53-56(54-73-63-62(68)61(67)60(66)57(75-63)55-76(69,70)71)74-59(65)52-50-48-46-44-42-40-38-36-34-32-30-28-26-24-22-20-18-16-14-12-10-8-6-4-2/h56-57,60-63,66-68H,3-55H2,1-2H3,(H,69,70,71)" "computed [2M+H-H2O]+=2188.724030688" "computed [2M+K]+=2244.829700688" "computed [M+H]+=1103.8736703439997" "computed [2M+Na]+=2228.721170688" "computed [2M+Cl]-=2241.1844006879996" "computed [2M+HAc-H]-=2264.7754306879997" "computed [M-H20-H]-=1083.8473103439999" "computed [M-H]-=1101.8584243439998" "computed [2M-H]-=2204.724124688" "computed [M+Na]+=1125.8554703439997" "computed [M+H-H2O]+=1085.8583303439998" "computed [2M+NH4]+=2223.7699806879996" "computed [M+Cl]-=1138.3187003439998" "computed [M+NH4]+=1120.9042803439997" "computed [M+K]+=1141.964000344" "computed [2M+H]+=2206.739370688" "computed [M+HAc-H]-=1161.9097303439999" "retention time=12.1" "collision energy spread=15 V" "author=Tobias Kind, Hiroshi Tsugawa" "computed spectral entropy=0.8957320347544409" "computed normalized entropy=0.6461340822528062" "computed mass accuracy=0.4940237844135047" "computed mass error=-5.443439997634414E-4" "SPLASH=splash10-0udi-0910000000-53391024aafb36a632f2" "submitter=submitter = Tobias Kind (University of California, Davis)" "MoNA Rating=4.5"
Num Peaks: 4
225.0069 20.020020
409.4043 10.010010
691.4457 10.010010
1101.858 100.000000


Name: SQDG 53:4
Synon: SQDG 27:0-26:4
Synon: $:00in-source
DB#: LipidBlast485795
InChIKey: RMNGJPBXIXZPNI-QLXZSTJSSA-N
Precursor_type: [M-H]-
Spectrum_type: MS2
PrecursorMZ: 1079.77963
Instrument_type: in-silico QTOF
Instrument: SCIEX 5600
Ion_mode: N
Collision_energy: 45 V
Formula: C62H112O12S
MW: 1080
ExactMass: 1080.787450024
Comments: "SMILES=CCCCCCCCCCCCCCCCCCCCCCCCCCC(=O)OCC(COC1OC(CS(O)(=O)=O)C(O)C(O)C1O)OC(=O)CCCCCCCCCCCC\C=C/C\C=C/C\C=C/C\C=C/CC" "compound class=SQDG" "computed SMILES=O=C(OCC(OC(=O)CCCCCCCCCCCCC=CCC=CCC=CCC=CCC)COC1OC(CS(=O)(=O)O)C(O)C(O)C1O)CCCCCCCCCCCCCCCCCCCCCCCCCC" "computed InChI=InChI=1S/C62H112O12S/c1-3-5-7-9-11-13-15-17-19-21-23-25-27-29-30-32-34-36-38-40-42-44-46-48-50-57(63)71-52-55(53-72-62-61(67)60(66)59(65)56(74-62)54-75(68,69)70)73-58(64)51-49-47-45-43-41-39-37-35-33-31-28-26-24-22-20-18-16-14-12-10-8-6-4-2/h6,8,12,14,18,20,24,26,55-56,59-62,65-67H,3-5,7,9-11,13,15-17,19,21-23,25,27-54H2,1-2H3,(H,68,69,70)/b8-6-,14-12-,20-18-,26-24-" "computed [2M+H-H2O]+=2144.567530048" "computed [2M+K]+=2200.673200048" "computed [M+H]+=1081.795420024" "computed [2M+Na]+=2184.564670048" "computed [2M+Cl]-=2197.027900048" "computed [2M+HAc-H]-=2220.618930048" "computed [M-H20-H]-=1061.769060024" "computed [M-H]-=1079.780174024" "computed [2M-H]-=2160.567624048" "computed [M+Na]+=1103.777220024" "computed [M+H-H2O]+=1063.780080024" "computed [2M+NH4]+=2179.613480048" "computed [M+Cl]-=1116.240450024" "computed [M+NH4]+=1098.826030024" "computed [M+K]+=1119.8857500240001" "computed [2M+H]+=2162.582870048" "computed [M+HAc-H]-=1139.831480024" "retention time=10.29" "collision energy spread=15 V" "author=Tobias Kind, Hiroshi Tsugawa" "computed spectral entropy=1.2473153436338864" "computed normalized entropy=0.6961399479424927" "computed mass accuracy=0.5038287302792869" "computed mass error=-5.440239999643381E-4" "SPLASH=splash10-004i-9010001000-ad11212a4e34976752bd" "submitter=submitter = Tobias Kind (University of California, Davis)" "MoNA Rating=4.5"
Num Peaks: 6
225.0069 20.020020
387.3261 10.010010
409.4043 10.010010
669.3675 10.010010
691.4457 10.010010
1079.78 100.000000


Name: SQDG 52:8
Synon: SQDG 26:4-26:4
Synon: $:00in-source
DB#: LipidBlast485794
InChIKey: KBFNQPPHQOGZOD-CKKCRWTASA-N
Precursor_type: [M-H]-
Spectrum_type: MS2
PrecursorMZ: 1057.70138
Instrument_type: in-silico QTOF
Instrument: SCIEX 5600
Ion_mode: N
Collision_energy: 45 V
Formula: C61H102O12S
MW: 1058
ExactMass: 1058.709199704
Comments: "SMILES=CC\C=C/C\C=C/C\C=C/C\C=C/CCCCCCCCCCCCC(=O)OCC(COC1OC(CS(O)(=O)=O)C(O)C(O)C1O)OC(=O)CCCCCCCCCCCC\C=C/C\C=C/C\C=C/C\C=C/CC" "compound class=SQDG" "computed SMILES=O=C(OCC(OC(=O)CCCCCCCCCCCCC=CCC=CCC=CCC=CCC)COC1OC(CS(=O)(=O)O)C(O)C(O)C1O)CCCCCCCCCCCCC=CCC=CCC=CCC=CCC" "computed InChI=InChI=1S/C61H102O12S/c1-3-5-7-9-11-13-15-17-19-21-23-25-27-29-31-33-35-37-39-41-43-45-47-49-56(62)70-51-54(52-71-61-60(66)59(65)58(64)55(73-61)53-74(67,68)69)72-57(63)50-48-46-44-42-40-38-36-34-32-30-28-26-24-22-20-18-16-14-12-10-8-6-4-2/h5-8,11-14,17-20,23-26,54-55,58-61,64-66H,3-4,9-10,15-16,21-22,27-53H2,1-2H3,(H,67,68,69)/b7-5-,8-6-,13-11-,14-12-,19-17-,20-18-,25-23-,26-24-" "computed [2M+H-H2O]+=2100.411029408" "computed [2M+K]+=2156.516699408" "computed [M+H]+=1059.7171697039998" "computed [2M+Na]+=2140.408169408" "computed [2M+Cl]-=2152.871399408" "computed [2M+HAc-H]-=2176.462429408" "computed [M-H20-H]-=1039.690809704" "computed [M-H]-=1057.701923704" "computed [2M-H]-=2116.411123408" "computed [M+Na]+=1081.6989697039999" "computed [M+H-H2O]+=1041.701829704" "computed [2M+NH4]+=2135.456979408" "computed [M+Cl]-=1094.162199704" "computed [M+NH4]+=1076.7477797039999" "computed [M+K]+=1097.807499704" "computed [2M+H]+=2118.426369408" "computed [M+HAc-H]-=1117.753229704" "retention time=8.37" "collision energy spread=15 V" "author=Tobias Kind, Hiroshi Tsugawa" "computed spectral entropy=0.8957320347544409" "computed normalized entropy=0.6461340822528062" "computed mass accuracy=0.5140430089425252" "computed mass error=-5.437039999378612E-4" "SPLASH=splash10-0a4i-9010000000-ae2acfd445a033c84f92" "submitter=submitter = Tobias Kind (University of California, Davis)" "MoNA Rating=4.5"
Num Peaks: 4
225.0069 20.020020
387.3261 10.010010
669.3674 10.010010
1057.701 100.000000


Name: SQDG 53:2
Synon: SQDG 27:0-26:2
Synon: $:00in-source
DB#: LipidBlast485793
InChIKey: AJZGDOBTNGAQRE-MYSACRKYSA-N
Precursor_type: [M-H]-
Spectrum_type: MS2
PrecursorMZ: 1083.81093
Instrument_type: in-silico QTOF
Instrument: SCIEX 5600
Ion_mode: N
Collision_energy: 45 V
Formula: C62H116O12S
MW: 1085
ExactMass: 1084.818750152
Comments: "SMILES=CCCCCCCCCCCCCCCCCCCCCCCCCCC(=O)OCC(COC1OC(CS(O)(=O)=O)C(O)C(O)C1O)OC(=O)CCCCCCCCCCCCC\C=C/C\C=C/CCCCCCC" "compound class=SQDG" "computed SMILES=O=C(OCC(OC(=O)CCCCCCCCCCCCCC=CCC=CCCCCCCC)COC1OC(CS(=O)(=O)O)C(O)C(O)C1O)CCCCCCCCCCCCCCCCCCCCCCCCCC" "computed InChI=InChI=1S/C62H116O12S/c1-3-5-7-9-11-13-15-17-19-21-23-25-27-29-30-32-34-36-38-40-42-44-46-48-50-57(63)71-52-55(53-72-62-61(67)60(66)59(65)56(74-62)54-75(68,69)70)73-58(64)51-49-47-45-43-41-39-37-35-33-31-28-26-24-22-20-18-16-14-12-10-8-6-4-2/h16,18,22,24,55-56,59-62,65-67H,3-15,17,19-21,23,25-54H2,1-2H3,(H,68,69,70)/b18-16-,24-22-" "computed [2M+H-H2O]+=2152.630130304" "computed [2M+K]+=2208.735800304" "computed [M+H]+=1085.8267201519998" "computed [2M+Na]+=2192.627270304" "computed [2M+Cl]-=2205.0905003039998" "computed [2M+HAc-H]-=2228.681530304" "computed [M-H20-H]-=1065.800360152" "computed [M-H]-=1083.8114741519998" "computed [2M-H]-=2168.630224304" "computed [M+Na]+=1107.8085201519998" "computed [M+H-H2O]+=1067.8113801519999" "computed [2M+NH4]+=2187.6760803039997" "computed [M+Cl]-=1120.2717501519999" "computed [M+NH4]+=1102.8573301519998" "computed [M+K]+=1123.917050152" "computed [2M+H]+=2170.645470304" "computed [M+HAc-H]-=1143.862780152" "retention time=11.04" "collision energy spread=15 V" "author=Tobias Kind, Hiroshi Tsugawa" "computed spectral entropy=1.2473153436338864" "computed normalized entropy=0.6961399479424927" "computed mass accuracy=0.5020728105662813" "computed mass error=-5.441519997475552E-4" "SPLASH=splash10-001i-9010001000-c5adf4a2b24441f3d645" "submitter=submitter = Tobias Kind (University of California, Davis)" "MoNA Rating=4.5"
Num Peaks: 6
225.0069 20.020020
391.3574 10.010010
409.4043 10.010010
673.3988 10.010010
691.4457 10.010010
1083.811 100.000000

