NAME : Pyrophen
PRECURSORMZ: 288.1225
PRECURSORTYPE: [M+H]+
FORMULA: C16H17NO4
INCHIKEY: VFMQMACUYWGDOJ-AWEZNQCLSA-N
INCHI: InChI=1S/C16H17NO4/c1-11(18)17-14(8-12-6-4-3-5-7-12)15-9-13(20-2)10-16(19)21-15/h3-7,9-10,14H,8H2,1-2H3,(H,17,18)/t14-/m0/s1
SMILES: CC(=O)N[C@@H](CC1=CC=CC=C1)C2=CC(=CC(=O)O2)OC
RETENTIONTIME: 2.94
INSTRUMENTTYPE: LC-ESI-ITFT
INSTRUMENT: Q-Exactive Orbitrap Thermo Scientific
IONMODE: Positive
LINKS: INCHIKEY:VFMQMACUYWGDOJ-AWEZNQCLSA-N; CAS:131190-56-2; PUBCHEM:CID:131349; CHEMSPIDER:116112; KNAPSACK:C00046868; COMPTOX:DTXSID50156940
Comment: DB#=MSBNK-AAFC-AC000854; origin=MassBank; Annotation Penicillium sp.
Splash: splash10-004j-1940000000-b1bd14eb30f6afd2739e
Num Peaks: 8
91.0542	2280306.0
125.0233	9241725.0
154.0499	755515.1875
155.0577	3291112.0
185.0961	3239590.5
200.107	427603.8125
229.0859	1328961.75
246.1125	6794924.5

NAME : Zearalenone
PRECURSORMZ: 319.1535
PRECURSORTYPE: [M+H]+
FORMULA: C18H22O5
INCHIKEY: MBMQEIFVQACCCH-QBODLPLBSA-N
INCHI: InChI=1S/C18H22O5/c1-12-6-5-9-14(19)8-4-2-3-7-13-10-15(20)11-16(21)17(13)18(22)23-12/h3,7,10-12,20-21H,2,4-6,8-9H2,1H3/b7-3+/t12-/m0/s1
SMILES: C[C@H]1CCCC(=O)CCC/C=C/C2=CC(=CC(=C2C(=O)O1)O)O
RETENTIONTIME: 3.65
INSTRUMENTTYPE: LC-ESI-ITFT
INSTRUMENT: Q-Exactive Orbitrap Thermo Scientific
IONMODE: Positive
LINKS: INCHIKEY:MBMQEIFVQACCCH-QBODLPLBSA-N; CAS:17924-92-4; PUBCHEM:CID:5281576; CHEMSPIDER:4444897; KNAPSACK:C00003025; COMPTOX:DTXSID0021460
Comment: DB#=MSBNK-AAFC-AC000292; origin=MassBank; Annotation Reference Standard (Level 1)
Splash: splash10-000i-2930000000-5f23d1f8df586bd436be
Num Peaks: 72
55.0185	271807.28125
67.0542	182020.6875
68.9971	98984.078125
69.0699	1981164.375
71.0491	78678.328125
79.0542	150142.84375
81.0699	132927.0
83.0491	97777.1171875
85.0648	290671.875
91.0542	225303.671875
93.0699	123108.1640625
95.0491	78146.9921875
95.0855	136119.359375
97.0648	563430.1875
105.0699	188985.296875
107.0855	114046.8359375
115.0542	128189.0546875
117.0699	194562.5
119.0855	142407.28125
123.0441	246228.546875
125.0961	110869.4375
129.0699	265243.4375
131.0855	316454.03125
133.0648	97277.5546875
141.0699	491052.0
145.0648	95271.796875
147.0441	167991.09375
147.0804	154564.3125
149.0597	163382.515625
157.0648	1072506.625
159.0804	187712.546875
160.0519	162983.703125
161.0597	744410.5625
163.039	144723.671875
163.0754	134602.65625
165.0182	310648.65625
169.0648	283235.6875
173.0597	234703.125
175.039	508607.75
175.0754	842876.0625
177.0546	306042.125
177.091	257526.359375
185.0597	2359925.0
187.0754	2116099.75
189.0546	1139775.25
197.0597	153058.28125
199.0754	253815.4375
201.091	184722.1875
203.0703	1895310.5
205.0495	181325.84375
205.0859	291407.3125
211.0754	102879.46875
213.0546	378189.375
213.091	293031.0625
214.0624	90710.203125
215.0703	267657.5
215.1067	106193.265625
217.0859	100202.40625
223.0754	131791.15625
225.091	176717.703125
226.0624	80507.6796875
227.0703	288499.9375
228.0781	89639.3203125
229.0859	218058.375
231.0652	134109.09375
241.0859	212610.90625
241.1223	87375.0234375
243.1016	99770.1796875
250.0988	113001.0234375
255.138	94680.8203125
265.1223	206529.171875
283.1329	106777.59375

NAME : Roquefortine M
PRECURSORMZ: 422.1817
PRECURSORTYPE: [M+H]+
FORMULA: C22H23N5O4
INCHIKEY: GIYROBMIPLLHQE-OQLLNIDSSA-N
INCHI: InChI=1S/C22H23N5O4/c1-4-21(2,3)22(14-7-5-6-8-17(14)27(31)20(22)30)10-16-19(29)25-15(18(28)26-16)9-13-11-23-12-24-13/h4-9,11-12,16,31H,1,10H2,2-3H3,(H,23,24)(H,25,29)(H,26,28)/b15-9+
SMILES: CC(C=C)(C1(C(N(O)C2=CC=CC=C12)=O)CC3C(N/C(C(N3)=O)=C/C4=CN=CN4)=O)C
RETENTIONTIME: 2.5
INSTRUMENTTYPE: LC-ESI-ITFT
INSTRUMENT: Q-Exactive Orbitrap Thermo Scientific
IONMODE: Positive
LINKS: INCHIKEY:GIYROBMIPLLHQE-OQLLNIDSSA-N; PUBCHEM:CID:137628390
Comment: DB#=MSBNK-AAFC-AC000928; origin=MassBank; Annotation Penicillium bissettii
Splash: splash10-0006-0900000000-7c863a67fce23b8374b5
Num Peaks: 1
192.0642	1002798.75

NAME : Decarestrictine F
PRECURSORMZ: 197.0803
PRECURSORTYPE: [M+H]+
FORMULA: C10H12O4
INCHIKEY: MXRJZFNJVFPSQN-NQRYBKARSA-N
INCHI: InChI=1S/C10H12O4/c1-6-4-9-8(14-9)3-2-7(11)5-10(12)13-6/h2-3,6,8-9H,4-5H2,1H3/b3-2-/t6-,8-,9+/m1/s1
SMILES: C[C@@H]1C[C@H]2[C@H](O2)/C=C\C(=O)CC(=O)O1
RETENTIONTIME: 2.48
INSTRUMENTTYPE: LC-ESI-ITFT
INSTRUMENT: Q-Exactive Orbitrap Thermo Scientific
IONMODE: Positive
LINKS: INCHIKEY:MXRJZFNJVFPSQN-NQRYBKARSA-N; PUBCHEM:CID:101635652; CHEMSPIDER:7991298; COMPTOX:DTXSID20894004
Comment: DB#=MSBNK-AAFC-AC000767; origin=MassBank; Annotation Penicillium diabolicalicense
Splash: splash10-0a4i-0900000000-6881f47b296a28ed74f6
Num Peaks: 4
85.0284	723397.8125
137.0597	714723.9375
155.0703	12981486.0
197.0808	4218970.0
